
Gurobi 11.0.2 (win64) logging started Wed Aug 14 20:06:24 2024

Set parameter LogFile to value "D:\Documenti\Scuola\Laurea magistrale unibs\laurea-unibs-mkfsp\output\2024-08-14T16_44_40.946359\logs\instance09_bucket4.log"
Set parameter TimeLimit to value 500
Set parameter MIPGap to value 0
Gurobi Optimizer version 11.0.2 build v11.0.2rc0 (win64 - Windows 10.0 (19045.2))

CPU model: Intel(R) Core(TM) i5-4670 CPU @ 3.40GHz, instruction set [SSE2|AVX|AVX2]
Thread count: 4 physical cores, 4 logical processors, using up to 4 threads

Optimize a model with 4331 rows, 21390 columns and 601434 nonzeros
Model fingerprint: 0x9d5024d2
Variable types: 0 continuous, 21390 integer (21225 binary)
Coefficient statistics:
  Matrix range     [1e+00, 9e+03]
  Objective range  [6e+02, 9e+03]
  Bounds range     [1e+00, 1e+00]
  RHS range        [1e+00, 8e+05]
Found heuristic solution: objective 773891.00000
Presolve time: 1.21s
Presolved: 4331 rows, 21390 columns, 601434 nonzeros
Variable types: 0 continuous, 21390 integer (21225 binary)
Found heuristic solution: objective 854254.00000
Deterministic concurrent LP optimizer: primal simplex, dual simplex, and barrier
Showing barrier log only...

Root barrier log...

Ordering time: 0.04s

Barrier statistics:
 AA' NZ     : 6.455e+05
 Factor NZ  : 7.811e+05 (roughly 15 MB of memory)
 Factor Ops : 3.642e+08 (less than 1 second per iteration)
 Threads    : 2

Barrier performed 0 iterations in 1.71 seconds (1.47 work units)
Barrier solve interrupted - model solved by another algorithm

Concurrent spin time: 0.12s (can be avoided by choosing Method=3)

Solved with dual simplex

Root relaxation: objective 9.605840e+05, 1251 iterations, 0.46 seconds (0.30 work units)

    Nodes    |    Current Node    |     Objective Bounds      |     Work
 Expl Unexpl |  Obj  Depth IntInf | Incumbent    BestBd   Gap | It/Node Time

H    0     0                    960584.00000 960584.000  0.00%     -    1s
     0     0 960584.000    0  974 960584.000 960584.000  0.00%     -    1s

Explored 1 nodes (1251 simplex iterations) in 1.77 seconds (1.48 work units)
Thread count was 4 (of 4 available processors)

Solution count 3: 960584 854254 773891 

Optimal solution found (tolerance 0.00e+00)
Best objective 9.605840000000e+05, best bound 9.605840000000e+05, gap 0.0000%
